* ENCODING=ISO-8859-1
NAME          CPLEX
ROWS
 N  obj1    
 G  c1      
 G  c2      
 G  c3      
 G  c4      
 G  c5      
 G  c6      
 G  c7      
 G  c8      
 G  c9      
 G  c10     
 G  c11     
 G  c12     
 G  c13     
 G  c14     
 G  c15     
 G  c16     
 G  c17     
 G  c18     
 G  c19     
 G  c20     
 G  c21     
 G  c22     
 G  c23     
 G  c24     
 G  c25     
 G  c26     
 G  c27     
 G  c28     
 G  c29     
 G  c30     
COLUMNS
    MARK0000  'MARKER'                 'INTORG'
    x1        obj1                            1
    x1        c2                            432
    x1        c3                            523
    x1        c16                           326
    x2        obj1                            1
    x2        c3                            506
    x2        c5                            349
    x2        c23                           509
    x2        c25                           458
    x2        c28                           353
    x3        obj1                            1
    x3        c10                           644
    x3        c18                           520
    x4        obj1                            1
    x4        c21                           744
    x4        c22                           710
    x4        c24                           901
    x5        obj1                            1
    x5        c13                           634
    x5        c16                           342
    x5        c17                           836
    x6        obj1                            1
    x6        c4                            316
    x6        c22                           677
    x7        obj1                            1
    x7        c12                           575
    x7        c13                           865
    x7        c15                           228
    x8        obj1                            1
    x8        c17                           120
    x8        c20                           289
    x8        c29                           694
    x9        obj1                            1
    x9        c15                           369
    x9        c18                           910
    x9        c22                           312
    x9        c24                           105
    x10       obj1                            1
    x10       c3                            912
    x10       c6                            785
    x10       c29                           382
    x11       obj1                            1
    x11       c20                           955
    x12       obj1                            1
    x12       c5                            223
    x12       c6                            132
    x12       c10                           527
    x12       c28                           461
    x13       obj1                            1
    x13       c11                           342
    x13       c12                           719
    x13       c26                           569
    x13       c29                           491
    x14       obj1                            1
    x14       c9                            474
    x15       obj1                            1
    x15       c12                           959
    x15       c26                           669
    x16       obj1                            1
    x17       obj1                            1
    x17       c4                            800
    x17       c16                           176
    x17       c21                           727
    x18       obj1                            1
    x18       c5                            700
    x18       c9                            171
    x18       c19                           987
    x19       obj1                            1
    x19       c1                            974
    x19       c27                           972
    x20       obj1                            1
    x20       c8                            428
    x20       c17                           393
    x20       c24                           743
    x21       obj1                            1
    x21       c13                           595
    x21       c21                           234
    x22       obj1                            1
    x22       c9                            267
    x22       c11                           257
    x22       c12                           606
    x22       c15                           619
    x23       obj1                            1
    x23       c4                            999
    x23       c24                           929
    x23       c26                           888
    x24       obj1                            1
    x24       c4                            450
    x24       c8                            243
    x25       obj1                            1
    x25       c8                            878
    x26       obj1                            1
    x26       c3                            253
    x26       c16                           708
    x27       obj1                            1
    x27       c6                            739
    x27       c7                            779
    x27       c11                           181
    x28       obj1                            1
    x28       c17                           262
    x28       c23                           899
    x29       obj1                            1
    x29       c19                           428
    x30       obj1                            1
    x30       c1                            651
    x30       c9                            729
    x30       c17                           932
    x30       c20                           655
    x30       c27                           883
    x30       c28                           336
    x31       obj1                            1
    x31       c4                            855
    x31       c5                            915
    x31       c22                           323
    x31       c28                           853
    x32       obj1                            1
    x32       c7                            790
    x32       c9                            171
    x32       c15                           945
    x32       c19                           811
    x32       c24                           407
    x33       obj1                            1
    x33       c6                            838
    x33       c10                           233
    x33       c25                           425
    x33       c28                           843
    x34       obj1                            1
    x34       c13                           410
    x34       c16                           874
    x34       c18                           915
    x34       c24                           346
    x35       obj1                            1
    x35       c4                            705
    x35       c10                           871
    x35       c12                           235
    x35       c19                           313
    x36       obj1                            1
    x36       c7                            641
    x36       c19                           207
    x37       obj1                            1
    x37       c2                            994
    x37       c13                           579
    x37       c14                           760
    x37       c28                           654
    x38       obj1                            1
    x38       c8                            295
    x38       c20                           902
    x38       c29                           539
    x39       obj1                            1
    x39       c24                           350
    x40       obj1                            1
    x40       c16                           805
    x40       c28                           357
    x40       c30                           193
    x41       obj1                            1
    x41       c2                            421
    x41       c5                            740
    x41       c13                           375
    x41       c29                           872
    x41       c30                           947
    x42       obj1                            1
    x42       c9                            506
    x42       c17                           724
    x42       c22                           824
    x42       c25                           699
    x43       obj1                            1
    x43       c8                            540
    x43       c11                           852
    x43       c14                           497
    x43       c17                           197
    x43       c19                           567
    x44       obj1                            1
    x44       c2                            432
    x45       obj1                            1
    x45       c5                            448
    x46       obj1                            1
    x46       c1                            935
    x46       c3                            778
    x46       c8                            957
    x46       c9                            475
    x46       c16                           382
    x46       c17                           670
    x47       obj1                            1
    x47       c16                           123
    x48       obj1                            1
    x48       c4                            451
    x48       c13                           994
    x49       obj1                            1
    x49       c2                            439
    x49       c11                           156
    x49       c24                           482
    x49       c26                           239
    x49       c30                           471
    x50       obj1                            1
    x50       c1                            291
    x50       c10                           146
    x50       c17                           756
    x51       obj1                            1
    x51       c2                            258
    x52       obj1                            1
    x52       c3                            643
    x52       c23                           266
    x52       c27                           725
    x52       c30                           936
    x53       obj1                            1
    x53       c5                            200
    x53       c8                            328
    x53       c10                           224
    x53       c11                           958
    x53       c19                           849
    x53       c22                           837
    x54       obj1                            1
    x54       c4                            626
    x54       c10                           327
    x54       c22                           389
    x55       obj1                            1
    x55       c24                           972
    x56       obj1                            1
    x56       c8                            567
    x56       c15                           814
    x57       obj1                            1
    x57       c14                           191
    x58       obj1                            1
    x58       c2                            620
    x58       c5                            155
    x58       c8                            992
    x58       c23                           108
    x58       c30                           863
    x59       obj1                            1
    x59       c19                           443
    x60       obj1                            1
    x60       c4                            766
    x60       c5                            758
    x60       c11                           166
    x60       c30                           759
    MARK0001  'MARKER'                 'INTEND'
RHS
    rhs       c1                           1426
    rhs       c2                           1798
    rhs       c3                           1808
    rhs       c4                           2984
    rhs       c5                           2244
    rhs       c6                           1247
    rhs       c7                           1105
    rhs       c8                           2614
    rhs       c9                           1397
    rhs       c10                          1486
    rhs       c11                          1456
    rhs       c12                          1547
    rhs       c13                          2226
    rhs       c14                           724
    rhs       c15                          1488
    rhs       c16                          1868
    rhs       c17                          2445
    rhs       c18                          1173
    rhs       c19                          2303
    rhs       c20                          1401
    rhs       c21                           853
    rhs       c22                          2036
    rhs       c23                           891
    rhs       c24                          2618
    rhs       c25                           791
    rhs       c26                          1183
    rhs       c27                          1290
    rhs       c28                          1929
    rhs       c29                          1489
    rhs       c30                          2085
BOUNDS
 LI bnd       x1        0
 LI bnd       x2        0
 LI bnd       x3        0
 LI bnd       x4        0
 LI bnd       x5        0
 LI bnd       x6        0
 LI bnd       x7        0
 LI bnd       x8        0
 LI bnd       x9        0
 LI bnd       x10       0
 LI bnd       x11       0
 LI bnd       x12       0
 LI bnd       x13       0
 LI bnd       x14       0
 LI bnd       x15       0
 LI bnd       x16       0
 LI bnd       x17       0
 LI bnd       x18       0
 LI bnd       x19       0
 LI bnd       x20       0
 LI bnd       x21       0
 LI bnd       x22       0
 LI bnd       x23       0
 LI bnd       x24       0
 LI bnd       x25       0
 LI bnd       x26       0
 LI bnd       x27       0
 LI bnd       x28       0
 LI bnd       x29       0
 LI bnd       x30       0
 LI bnd       x31       0
 LI bnd       x32       0
 LI bnd       x33       0
 LI bnd       x34       0
 LI bnd       x35       0
 LI bnd       x36       0
 LI bnd       x37       0
 LI bnd       x38       0
 LI bnd       x39       0
 LI bnd       x40       0
 LI bnd       x41       0
 LI bnd       x42       0
 LI bnd       x43       0
 LI bnd       x44       0
 LI bnd       x45       0
 LI bnd       x46       0
 LI bnd       x47       0
 LI bnd       x48       0
 LI bnd       x49       0
 LI bnd       x50       0
 LI bnd       x51       0
 LI bnd       x52       0
 LI bnd       x53       0
 LI bnd       x54       0
 LI bnd       x55       0
 LI bnd       x56       0
 LI bnd       x57       0
 LI bnd       x58       0
 LI bnd       x59       0
 LI bnd       x60       0
ENDATA
